8
0 1 43 78 766 250 355 152
1 0 21 75 217 284 86 430
43 21 0 489 170 145 429 205
78 75 489 0 203 104 333 384
766 217 170 203 0 268 94 3
250 284 145 104 268 0 80 121
355 86 429 333 94 80 0 174
152 430 205 384 3 121 174 0